
;this file is automatically generated: Mon Nov 02 10:43:03 CST 2020

;declarations generated

(declare-fun oclExcludes ( Int Int) Bool)
(declare-fun Cardinality ( Int) Int)
(declare-fun class15_Class15IntAttr5 ( Int) Int)
(declare-fun class15_Class15IntAttr6 ( Int) Int)
(declare-fun class15_Class15IntAttr4 ( Int) Int)
(declare-fun oclSelect ( Int Bool) Int)
(declare-fun class15_Class15BoolAttr1 ( Int) Bool)
(declare-fun class15_Class15BoolAttr0 ( Int) Bool)
(declare-fun class15_Class15BoolAttr2 ( Int) Bool)
(declare-fun obj_9b3933c8_d372_4570_9150_a7bfd567e484 ( Int) Int)
(declare-fun Enum0 ( Int) Int)
(declare-fun Enum1 ( Int) Int)
(declare-fun Enum2 ( Int) Int)
(declare-fun container_ ( Int) Int)
(declare-fun type_c64db99f_6585_415f_b2e0_010b0f6d1bd0_Class12 ( Int) Bool)
(declare-fun type_c64db99f_6585_415f_b2e0_010b0f6d1bd0_Class11 ( Int) Bool)
(declare-fun type_c64db99f_6585_415f_b2e0_010b0f6d1bd0_Class14 ( Int) Bool)
(declare-fun type_c64db99f_6585_415f_b2e0_010b0f6d1bd0_Class13 ( Int) Bool)
(declare-fun type_c64db99f_6585_415f_b2e0_010b0f6d1bd0_Class16 ( Int) Bool)
(declare-fun type_c64db99f_6585_415f_b2e0_010b0f6d1bd0_Class15 ( Int) Bool)
(declare-fun type_c64db99f_6585_415f_b2e0_010b0f6d1bd0_Class17 ( Int) Bool)
(declare-fun type_c64db99f_6585_415f_b2e0_010b0f6d1bd0_Class10 ( Int) Bool)
(declare-fun oclIncludes ( Int Int) Bool)
(declare-fun type_c64db99f_6585_415f_b2e0_010b0f6d1bd0_Class8 ( Int) Bool)
(declare-fun type_c64db99f_6585_415f_b2e0_010b0f6d1bd0_Class9 ( Int) Bool)
(declare-fun type_c64db99f_6585_415f_b2e0_010b0f6d1bd0_Class4 ( Int) Bool)
(declare-fun type_c64db99f_6585_415f_b2e0_010b0f6d1bd0_Class5 ( Int) Bool)
(declare-fun type_c64db99f_6585_415f_b2e0_010b0f6d1bd0_Class6 ( Int) Bool)
(declare-fun type_c64db99f_6585_415f_b2e0_010b0f6d1bd0_Class7 ( Int) Bool)
(declare-fun type_c64db99f_6585_415f_b2e0_010b0f6d1bd0_Class0 ( Int) Bool)
(declare-fun type_c64db99f_6585_415f_b2e0_010b0f6d1bd0_Class1 ( Int) Bool)
(declare-fun type_c64db99f_6585_415f_b2e0_010b0f6d1bd0_Class2 ( Int) Bool)
(declare-fun type_c64db99f_6585_415f_b2e0_010b0f6d1bd0_Class3 ( Int) Bool)
(declare-fun ObjAt ( Int Int) Int)

;formula(s) generated
(assert (forall ((p Int)) (=> ( type_c64db99f_6585_415f_b2e0_010b0f6d1bd0_Class15 p )  (and (>= ( Enum0 ( obj_9b3933c8_d372_4570_9150_a7bfd567e484 p )  )  0) (<= ( Enum0 ( obj_9b3933c8_d372_4570_9150_a7bfd567e484 p )  )  4)))))
(assert (! (forall ((v Int)) (=> ( type_c64db99f_6585_415f_b2e0_010b0f6d1bd0_Class15 v )  (or ( class15_Class15BoolAttr0 ( obj_9b3933c8_d372_4570_9150_a7bfd567e484 v )  )  (or (forall ((v Int)) (=> ( type_c64db99f_6585_415f_b2e0_010b0f6d1bd0_Class15 v )  (or ( class15_Class15BoolAttr1 ( obj_9b3933c8_d372_4570_9150_a7bfd567e484 v )  )  (or (forall ((v Int)) (=> ( type_c64db99f_6585_415f_b2e0_010b0f6d1bd0_Class15 v )  ( class15_Class15BoolAttr2 ( obj_9b3933c8_d372_4570_9150_a7bfd567e484 v )  ) )) (forall ((v Int)) (=> ( type_c64db99f_6585_415f_b2e0_010b0f6d1bd0_Class15 v )  (= ( class15_Class15IntAttr5 ( obj_9b3933c8_d372_4570_9150_a7bfd567e484 v )  )  17))))))) (forall ((v Int)) (=> ( type_c64db99f_6585_415f_b2e0_010b0f6d1bd0_Class15 v )  ( class15_Class15BoolAttr2 ( obj_9b3933c8_d372_4570_9150_a7bfd567e484 v )  ) )))))):named l0))
(assert (! (forall ((c5_2 Int)(c5_1 Int)) (=> (and ( type_c64db99f_6585_415f_b2e0_010b0f6d1bd0_Class15 c5_1 )  ( type_c64db99f_6585_415f_b2e0_010b0f6d1bd0_Class15 c5_2 ) ) (not (= ( class15_Class15IntAttr4 ( obj_9b3933c8_d372_4570_9150_a7bfd567e484 c5_1 )  )  ( class15_Class15IntAttr5 ( obj_9b3933c8_d372_4570_9150_a7bfd567e484 c5_2 )  ) ) ))):named l1))
(assert (! (forall ((c5_2 Int)(c5_1 Int)) (=> (and ( type_c64db99f_6585_415f_b2e0_010b0f6d1bd0_Class15 c5_1 )  ( type_c64db99f_6585_415f_b2e0_010b0f6d1bd0_Class15 c5_2 ) ) (or (< ( class15_Class15IntAttr6 ( obj_9b3933c8_d372_4570_9150_a7bfd567e484 c5_1 )  )  ( class15_Class15IntAttr5 ( obj_9b3933c8_d372_4570_9150_a7bfd567e484 c5_2 )  ) ) (or (forall ((c5_2 Int)(c5_1 Int)) (=> (and ( type_c64db99f_6585_415f_b2e0_010b0f6d1bd0_Class15 c5_1 )  ( type_c64db99f_6585_415f_b2e0_010b0f6d1bd0_Class15 c5_2 ) ) (not (= ( class15_Class15IntAttr4 ( obj_9b3933c8_d372_4570_9150_a7bfd567e484 c5_1 )  )  ( class15_Class15IntAttr6 ( obj_9b3933c8_d372_4570_9150_a7bfd567e484 c5_2 )  ) ) ))) (forall ((v Int)) (=> ( type_c64db99f_6585_415f_b2e0_010b0f6d1bd0_Class15 v )  (not (= ( Enum0 ( obj_9b3933c8_d372_4570_9150_a7bfd567e484 v )  )  0) ))))))):named l2))
(assert (! (forall ((v Int)) (=> ( type_c64db99f_6585_415f_b2e0_010b0f6d1bd0_Class15 v )  ( class15_Class15BoolAttr1 ( obj_9b3933c8_d372_4570_9150_a7bfd567e484 v )  ) )):named l3))
(assert (! (forall ((v Int)) (=> ( type_c64db99f_6585_415f_b2e0_010b0f6d1bd0_Class15 v )  (not ( class15_Class15BoolAttr1 ( obj_9b3933c8_d372_4570_9150_a7bfd567e484 v )  )  ))):named l4))
(assert (! (or (forall ((c5_2 Int)(c5_1 Int)) (=> (and ( type_c64db99f_6585_415f_b2e0_010b0f6d1bd0_Class15 c5_1 )  ( type_c64db99f_6585_415f_b2e0_010b0f6d1bd0_Class15 c5_2 ) ) (< ( class15_Class15IntAttr6 ( obj_9b3933c8_d372_4570_9150_a7bfd567e484 c5_1 )  )  ( class15_Class15IntAttr4 ( obj_9b3933c8_d372_4570_9150_a7bfd567e484 c5_2 )  ) ))) (forall ((v Int)) (=> ( type_c64db99f_6585_415f_b2e0_010b0f6d1bd0_Class15 v )  (not (= ( class15_Class15IntAttr4 ( obj_9b3933c8_d372_4570_9150_a7bfd567e484 v )  )  2) )))):named l5))
(assert (! (or (forall ((v Int)) (=> ( type_c64db99f_6585_415f_b2e0_010b0f6d1bd0_Class15 v )  (< ( class15_Class15IntAttr6 ( obj_9b3933c8_d372_4570_9150_a7bfd567e484 v )  )  11))) (forall ((v Int)) (=> ( type_c64db99f_6585_415f_b2e0_010b0f6d1bd0_Class15 v )  (= ( class15_Class15IntAttr4 ( obj_9b3933c8_d372_4570_9150_a7bfd567e484 v )  )  11)))):named l6))
(assert (! (exists ((o Int)) ( type_c64db99f_6585_415f_b2e0_010b0f6d1bd0_Class0 ( obj_9b3933c8_d372_4570_9150_a7bfd567e484 o )  ) ):named c0))
(assert (! (exists ((o Int)) ( type_c64db99f_6585_415f_b2e0_010b0f6d1bd0_Class1 ( obj_9b3933c8_d372_4570_9150_a7bfd567e484 o )  ) ):named c1))
(assert (! (exists ((o Int)) (and (and ( type_c64db99f_6585_415f_b2e0_010b0f6d1bd0_Class10 ( obj_9b3933c8_d372_4570_9150_a7bfd567e484 o )  )  ( type_c64db99f_6585_415f_b2e0_010b0f6d1bd0_Class14 ( obj_9b3933c8_d372_4570_9150_a7bfd567e484 o )  ) ) ( type_c64db99f_6585_415f_b2e0_010b0f6d1bd0_Class16 ( obj_9b3933c8_d372_4570_9150_a7bfd567e484 o )  ) )):named c2))
(assert (! (exists ((o Int)) ( type_c64db99f_6585_415f_b2e0_010b0f6d1bd0_Class11 ( obj_9b3933c8_d372_4570_9150_a7bfd567e484 o )  ) ):named c3))
(assert (! (exists ((o Int)) ( type_c64db99f_6585_415f_b2e0_010b0f6d1bd0_Class12 ( obj_9b3933c8_d372_4570_9150_a7bfd567e484 o )  ) ):named c4))
(assert (! (exists ((o Int)) ( type_c64db99f_6585_415f_b2e0_010b0f6d1bd0_Class13 ( obj_9b3933c8_d372_4570_9150_a7bfd567e484 o )  ) ):named c5))
(assert (! (exists ((o Int)) ( type_c64db99f_6585_415f_b2e0_010b0f6d1bd0_Class14 ( obj_9b3933c8_d372_4570_9150_a7bfd567e484 o )  ) ):named c6))
(assert (! (exists ((o Int)) ( type_c64db99f_6585_415f_b2e0_010b0f6d1bd0_Class15 ( obj_9b3933c8_d372_4570_9150_a7bfd567e484 o )  ) ):named c7))
(assert (! (exists ((o Int)) (and ( type_c64db99f_6585_415f_b2e0_010b0f6d1bd0_Class16 ( obj_9b3933c8_d372_4570_9150_a7bfd567e484 o )  )  ( type_c64db99f_6585_415f_b2e0_010b0f6d1bd0_Class14 ( obj_9b3933c8_d372_4570_9150_a7bfd567e484 o )  ) )):named c8))
(assert (! (exists ((o Int)) ( type_c64db99f_6585_415f_b2e0_010b0f6d1bd0_Class17 ( obj_9b3933c8_d372_4570_9150_a7bfd567e484 o )  ) ):named c9))
(assert (! (exists ((o Int)) ( type_c64db99f_6585_415f_b2e0_010b0f6d1bd0_Class2 ( obj_9b3933c8_d372_4570_9150_a7bfd567e484 o )  ) ):named c10))
(assert (! (exists ((o Int)) ( type_c64db99f_6585_415f_b2e0_010b0f6d1bd0_Class3 ( obj_9b3933c8_d372_4570_9150_a7bfd567e484 o )  ) ):named c11))
(assert (! (exists ((o Int)) ( type_c64db99f_6585_415f_b2e0_010b0f6d1bd0_Class4 ( obj_9b3933c8_d372_4570_9150_a7bfd567e484 o )  ) ):named c12))
(assert (! (exists ((o Int)) ( type_c64db99f_6585_415f_b2e0_010b0f6d1bd0_Class5 ( obj_9b3933c8_d372_4570_9150_a7bfd567e484 o )  ) ):named c13))
(assert (! (exists ((o Int)) ( type_c64db99f_6585_415f_b2e0_010b0f6d1bd0_Class6 ( obj_9b3933c8_d372_4570_9150_a7bfd567e484 o )  ) ):named c14))
(assert (! (exists ((o Int)) ( type_c64db99f_6585_415f_b2e0_010b0f6d1bd0_Class7 ( obj_9b3933c8_d372_4570_9150_a7bfd567e484 o )  ) ):named c15))
(assert (! (exists ((o Int)) ( type_c64db99f_6585_415f_b2e0_010b0f6d1bd0_Class8 ( obj_9b3933c8_d372_4570_9150_a7bfd567e484 o )  ) ):named c16))
(assert (! (exists ((o Int)) ( type_c64db99f_6585_415f_b2e0_010b0f6d1bd0_Class9 ( obj_9b3933c8_d372_4570_9150_a7bfd567e484 o )  ) ):named c17))

 ;end of formula 